certificates/rado_a5_c217_N43.cnf
c Rad2 upper bound instance: x1 + 5*x2 - x3 = 217, interval [1,43]
p cnf 43 378
1 3 43 0
-1 -3 -43 0
2 4 43 0
-2 -4 -43 0
3 5 43 0
-3 -5 -43 0
4 6 43 0
-4 -6 -43 0
5 7 43 0
-5 -7 -43 0
1 8 42 0
-1 -8 -42 0
6 8 43 0
-6 -8 -43 0
2 9 42 0
-2 -9 -42 0
7 9 43 0
-7 -9 -43 0
3 10 42 0
-3 -10 -42 0
8 10 43 0
-8 -10 -43 0
4 11 42 0
-4 -11 -42 0
9 11 43 0
-9 -11 -43 0
5 12 42 0
-5 -12 -42 0
10 12 43 0
-10 -12 -43 0
1 13 41 0
-1 -13 -41 0
6 13 42 0
-6 -13 -42 0
11 13 43 0
-11 -13 -43 0
2 14 41 0
-2 -14 -41 0
7 14 42 0
-7 -14 -42 0
12 14 43 0
-12 -14 -43 0
3 15 41 0
-3 -15 -41 0
8 15 42 0
-8 -15 -42 0
13 15 43 0
-13 -15 -43 0
4 16 41 0
-4 -16 -41 0
9 16 42 0
-9 -16 -42 0
14 16 43 0
-14 -16 -43 0
5 17 41 0
-5 -17 -41 0
10 17 42 0
-10 -17 -42 0
15 17 43 0
-15 -17 -43 0
1 18 40 0
-1 -18 -40 0
6 18 41 0
-6 -18 -41 0
11 18 42 0
-11 -18 -42 0
16 18 43 0
-16 -18 -43 0
2 19 40 0
-2 -19 -40 0
7 19 41 0
-7 -19 -41 0
12 19 42 0
-12 -19 -42 0
17 19 43 0
-17 -19 -43 0
3 20 40 0
-3 -20 -40 0
8 20 41 0
-8 -20 -41 0
13 20 42 0
-13 -20 -42 0
18 20 43 0
-18 -20 -43 0
4 21 40 0
-4 -21 -40 0
9 21 41 0
-9 -21 -41 0
14 21 42 0
-14 -21 -42 0
19 21 43 0
-19 -21 -43 0
5 22 40 0
-5 -22 -40 0
10 22 41 0
-10 -22 -41 0
15 22 42 0
-15 -22 -42 0
20 22 43 0
-20 -22 -43 0
1 23 39 0
-1 -23 -39 0
6 23 40 0
-6 -23 -40 0
11 23 41 0
-11 -23 -41 0
16 23 42 0
-16 -23 -42 0
21 23 43 0
-21 -23 -43 0
2 24 39 0
-2 -24 -39 0
7 24 40 0
-7 -24 -40 0
12 24 41 0
-12 -24 -41 0
17 24 42 0
-17 -24 -42 0
22 24 43 0
-22 -24 -43 0
3 25 39 0
-3 -25 -39 0
8 25 40 0
-8 -25 -40 0
13 25 41 0
-13 -25 -41 0
18 25 42 0
-18 -25 -42 0
23 25 43 0
-23 -25 -43 0
4 26 39 0
-4 -26 -39 0
9 26 40 0
-9 -26 -40 0
14 26 41 0
-14 -26 -41 0
19 26 42 0
-19 -26 -42 0
24 26 43 0
-24 -26 -43 0
5 27 39 0
-5 -27 -39 0
10 27 40 0
-10 -27 -40 0
15 27 41 0
-15 -27 -41 0
20 27 42 0
-20 -27 -42 0
25 27 43 0
-25 -27 -43 0
1 28 38 0
-1 -28 -38 0
6 28 39 0
-6 -28 -39 0
11 28 40 0
-11 -28 -40 0
16 28 41 0
-16 -28 -41 0
21 28 42 0
-21 -28 -42 0
26 28 43 0
-26 -28 -43 0
2 29 38 0
-2 -29 -38 0
7 29 39 0
-7 -29 -39 0
12 29 40 0
-12 -29 -40 0
17 29 41 0
-17 -29 -41 0
22 29 42 0
-22 -29 -42 0
27 29 43 0
-27 -29 -43 0
3 30 38 0
-3 -30 -38 0
8 30 39 0
-8 -30 -39 0
13 30 40 0
-13 -30 -40 0
18 30 41 0
-18 -30 -41 0
23 30 42 0
-23 -30 -42 0
28 30 43 0
-28 -30 -43 0
4 31 38 0
-4 -31 -38 0
9 31 39 0
-9 -31 -39 0
14 31 40 0
-14 -31 -40 0
19 31 41 0
-19 -31 -41 0
24 31 42 0
-24 -31 -42 0
29 31 43 0
-29 -31 -43 0
5 32 38 0
-5 -32 -38 0
10 32 39 0
-10 -32 -39 0
15 32 40 0
-15 -32 -40 0
20 32 41 0
-20 -32 -41 0
25 32 42 0
-25 -32 -42 0
30 32 43 0
-30 -32 -43 0
1 33 37 0
-1 -33 -37 0
6 33 38 0
-6 -33 -38 0
11 33 39 0
-11 -33 -39 0
16 33 40 0
-16 -33 -40 0
21 33 41 0
-21 -33 -41 0
26 33 42 0
-26 -33 -42 0
31 33 43 0
-31 -33 -43 0
2 34 37 0
-2 -34 -37 0
7 34 38 0
-7 -34 -38 0
12 34 39 0
-12 -34 -39 0
17 34 40 0
-17 -34 -40 0
22 34 41 0
-22 -34 -41 0
27 34 42 0
-27 -34 -42 0
32 34 43 0
-32 -34 -43 0
3 35 37 0
-3 -35 -37 0
8 35 38 0
-8 -35 -38 0
13 35 39 0
-13 -35 -39 0
18 35 40 0
-18 -35 -40 0
23 35 41 0
-23 -35 -41 0
28 35 42 0
-28 -35 -42 0
33 35 43 0
-33 -35 -43 0
4 36 37 0
-4 -36 -37 0
9 36 38 0
-9 -36 -38 0
14 36 39 0
-14 -36 -39 0
19 36 40 0
-19 -36 -40 0
24 36 41 0
-24 -36 -41 0
29 36 42 0
-29 -36 -42 0
34 36 43 0
-34 -36 -43 0
5 37 0
-5 -37 0
10 37 38 0
-10 -37 -38 0
15 37 39 0
-15 -37 -39 0
20 37 40 0
-20 -37 -40 0
25 37 41 0
-25 -37 -41 0
30 37 42 0
-30 -37 -42 0
35 37 43 0
-35 -37 -43 0
1 36 38 0
-1 -36 -38 0
6 37 38 0
-6 -37 -38 0
11 38 0
-11 -38 0
16 38 39 0
-16 -38 -39 0
21 38 40 0
-21 -38 -40 0
26 38 41 0
-26 -38 -41 0
31 38 42 0
-31 -38 -42 0
36 38 43 0
-36 -38 -43 0
2 36 39 0
-2 -36 -39 0
7 37 39 0
-7 -37 -39 0
12 38 39 0
-12 -38 -39 0
17 39 0
-17 -39 0
22 39 40 0
-22 -39 -40 0
27 39 41 0
-27 -39 -41 0
32 39 42 0
-32 -39 -42 0
37 39 43 0
-37 -39 -43 0
3 36 40 0
-3 -36 -40 0
8 37 40 0
-8 -37 -40 0
13 38 40 0
-13 -38 -40 0
18 39 40 0
-18 -39 -40 0
23 40 0
-23 -40 0
28 40 41 0
-28 -40 -41 0
33 40 42 0
-33 -40 -42 0
38 40 43 0
-38 -40 -43 0
4 36 41 0
-4 -36 -41 0
9 37 41 0
-9 -37 -41 0
14 38 41 0
-14 -38 -41 0
19 39 41 0
-19 -39 -41 0
24 40 41 0
-24 -40 -41 0
29 41 0
-29 -41 0
34 41 42 0
-34 -41 -42 0
39 41 43 0
-39 -41 -43 0
5 36 42 0
-5 -36 -42 0
10 37 42 0
-10 -37 -42 0
15 38 42 0
-15 -38 -42 0
20 39 42 0
-20 -39 -42 0
25 40 42 0
-25 -40 -42 0
30 41 42 0
-30 -41 -42 0
35 42 0
-35 -42 0
40 42 43 0
-40 -42 -43 0
1 35 43 0
-1 -35 -43 0
6 36 43 0
-6 -36 -43 0
11 37 43 0
-11 -37 -43 0
16 38 43 0
-16 -38 -43 0
21 39 43 0
-21 -39 -43 0
26 40 43 0
-26 -40 -43 0
31 41 43 0
-31 -41 -43 0
36 42 43 0
-36 -42 -43 0
41 43 0
-41 -43 0
