certificates/rado_a5_c217_N43.drat
-43 0
41 0
-29 0
27 0
31 0
-15 0
-39 0
-19 0
13 0
17 0
37 0
21 0
7 0
-1 0
-25 0
-5 0
-9 0
-33 0
3 0
35 0
23 0
11 0
0
